p tw 175 593
1 2
1 5
1 13
1 18
1 42
1 78
2 3
2 5
2 13
2 138
2 145
3 4
3 138
3 139
3 145
4 8
4 9
4 105
4 107
4 108
4 139
4 145
4 146
4 168
5 6
5 8
5 10
5 13
5 140
6 7
6 8
6 10
6 16
6 106
6 107
6 109
6 111
6 140
6 147
6 169
7 12
7 145
7 146
7 147
7 148
8 9
8 10
8 16
8 139
8 140
9 138
9 139
9 145
10 11
10 140
10 141
11 12
11 15
11 16
11 109
11 110
11 111
11 141
11 148
11 170
12 147
12 148
13 14
13 15
13 17
13 142
14 15
14 17
14 99
14 110
14 142
14 171
15 16
15 17
15 99
15 141
15 142
16 140
16 141
17 142
17 143
18 19
18 22
18 30
18 42
18 78
19 20
19 22
19 30
19 138
19 149
20 21
20 138
20 139
20 149
21 25
21 26
21 113
21 115
21 116
21 139
21 149
21 150
21 168
22 23
22 25
22 27
22 30
22 140
23 24
23 25
23 27
23 33
23 114
23 115
23 117
23 119
23 140
23 151
23 169
24 29
24 149
24 150
24 151
24 152
25 26
25 27
25 33
25 139
25 140
26 138
26 139
26 149
27 28
27 140
27 141
28 29
28 32
28 33
28 117
28 118
28 119
28 141
28 152
28 170
29 151
29 152
30 31
30 32
30 34
30 142
31 32
31 34
31 100
31 118
31 142
31 171
32 33
32 34
32 100
32 141
32 142
33 140
33 141
34 142
34 143
35 36
35 137
35 153
36 137
36 153
36 154
37 137
37 153
37 154
38 39
38 155
38 156
39 40
39 41
39 75
39 76
39 77
39 156
39 163
40 41
40 156
40 157
41 155
41 156
42 43
42 46
42 54
42 78
43 44
43 46
43 54
43 138
43 153
44 45
44 138
44 153
44 154
45 49
45 50
45 80
45 82
45 83
45 138
45 139
45 154
45 161
46 47
46 49
46 51
46 54
46 155
47 48
47 49
47 51
47 58
47 81
47 82
47 84
47 87
47 140
47 155
47 162
48 138
48 139
48 140
49 50
49 51
49 58
49 154
49 155
50 138
50 153
50 154
51 52
51 155
51 156
52 53
52 57
52 58
52 84
52 86
52 87
52 141
52 156
52 163
53 56
53 138
53 139
53 140
53 141
54 55
54 57
54 59
54 157
55 56
55 57
55 59
55 85
55 86
55 88
55 101
55 103
55 142
55 157
55 164
56 61
56 141
56 142
57 58
57 59
57 101
57 156
57 157
58 155
58 156
59 60
59 157
60 61
60 88
60 101
60 103
60 143
61 102
61 142
61 143
62 63
62 153
62 158
63 64
63 153
63 158
64 66
64 70
64 71
64 153
64 154
65 153
65 154
65 155
66 153
66 158
67 68
67 153
67 154
67 155
67 156
68 156
68 157
69 70
69 153
69 159
70 153
70 159
71 153
71 159
72 73
72 137
72 160
73 137
73 160
73 161
74 137
74 160
74 161
75 162
75 163
76 77
76 163
76 164
77 162
77 163
78 79
78 81
78 85
79 80
79 81
79 85
79 138
79 160
80 138
80 160
80 161
81 82
81 84
81 85
81 162
82 83
82 84
82 87
82 161
82 162
83 138
83 160
83 161
84 162
84 163
85 86
85 88
85 164
86 87
86 88
86 103
86 163
86 164
87 162
87 163
88 164
89 90
89 160
89 165
90 91
90 160
90 165
91 93
91 97
91 98
91 160
91 161
92 160
92 161
92 162
93 160
93 165
94 95
94 160
94 161
94 162
94 163
95 163
95 164
96 97
96 160
96 166
97 160
97 166
98 160
98 166
99 142
99 143
100 142
100 143
101 157
102 143
102 144
103 164
104 105
104 106
104 145
104 167
105 145
105 167
105 168
106 107
106 109
106 169
107 108
107 109
107 111
107 168
107 169
108 145
108 167
108 168
109 169
109 170
110 111
110 170
110 171
111 169
111 170
112 113
112 114
112 149
112 167
113 149
113 167
113 168
114 115
114 117
114 169
115 116
115 117
115 119
115 168
115 169
116 149
116 167
116 168
117 169
117 170
118 119
118 170
118 171
119 169
119 170
120 121
120 167
120 174
121 122
121 167
121 174
122 124
122 128
122 129
122 167
122 168
123 167
123 168
123 169
124 167
124 174
125 126
125 167
125 168
125 169
125 170
126 170
126 171
127 128
127 167
127 175
128 167
128 175
129 167
129 175
130 131
130 132
130 144
130 173
131 132
131 138
131 139
131 144
131 167
131 168
131 173
132 133
132 134
132 143
132 144
132 172
132 173
133 134
133 142
133 143
133 171
133 172
134 140
134 141
134 143
134 169
134 170
134 172
135 153
135 154
135 160
135 161
136 155
136 156
136 157
136 162
136 163
136 164
137 153
137 160
138 139
138 140
138 145
138 149
138 153
138 160
138 167
138 168
139 140
139 167
139 168
140 141
140 169
140 170
141 169
141 170
142 171
143 144
143 172
144 173
145 146
145 167
147 148
149 150
149 167
151 152
153 154
153 155
153 158
153 159
153 160
153 161
154 155
154 160
154 161
155 156
155 162
155 163
156 162
156 163
157 164
158 159
160 161
160 162
160 165
160 166
161 162
162 163
165 166
167 168
167 169
167 174
167 175
168 169
169 170
172 173
174 175
